6981
831
3006
1970
3873
4867
8566
2777
6021
6285
8685
4432
9168
6794
661
6384
6234
9483
1262
5207
9286
8484
5005
4813
7547
2174
9872
3265
605
2924
3539
2516
9809
991
8282
5218
4319
4110
3973
3491
3760
7167
524
5949
4936
2117
722
553
1725
3288
